p cnf 30000 30000
11 12 13 0
-11 -12 -13 0
12 13 14 0
-12 -13 -14 0
13 14 15 0
-13 -14 -15 0
14 15 16 0
-14 -15 -16 0
21 22 23 0
-21 -22 -23 0
22 23 24 0
-22 -23 -24 0
23 24 25 0
-23 -24 -25 0
24 25 26 0
-24 -25 -26 0
31 32 33 0
-31 -32 -33 0
32 33 34 0
-32 -33 -34 0
33 34 35 0
-33 -34 -35 0
34 35 36 0
-34 -35 -36 0
41 42 43 0
-41 -42 -43 0
42 43 44 0
-42 -43 -44 0
43 44 45 0
-43 -44 -45 0
44 45 46 0
-44 -45 -46 0
51 52 53 0
-51 -52 -53 0
52 53 54 0
-52 -53 -54 0
53 54 55 0
-53 -54 -55 0
54 55 56 0
-54 -55 -56 0
61 62 63 0
-61 -62 -63 0
62 63 64 0
-62 -63 -64 0
63 64 65 0
-63 -64 -65 0
64 65 66 0
-64 -65 -66 0
11 21 31 0
-11 -21 -31 0
21 31 41 0
-21 -31 -41 0
31 41 51 0
-31 -41 -51 0
41 51 61 0
-41 -51 -61 0
12 22 32 0
-12 -22 -32 0
22 32 42 0
-22 -32 -42 0
32 42 52 0
-32 -42 -52 0
42 52 62 0
-42 -52 -62 0
13 23 33 0
-13 -23 -33 0
23 33 43 0
-23 -33 -43 0
33 43 53 0
-33 -43 -53 0
43 53 63 0
-43 -53 -63 0
14 24 34 0
-14 -24 -34 0
24 34 44 0
-24 -34 -44 0
34 44 54 0
-34 -44 -54 0
44 54 64 0
-44 -54 -64 0
15 25 35 0
-15 -25 -35 0
25 35 45 0
-25 -35 -45 0
35 45 55 0
-35 -45 -55 0
45 55 65 0
-45 -55 -65 0
16 26 36 0
-16 -26 -36 0
26 36 46 0
-26 -36 -46 0
36 46 56 0
-36 -46 -56 0
46 56 66 0
-46 -56 -66 0
11 12 13 14 0
11 12 13 15 0
11 12 13 16 0
11 12 14 15 0
11 12 14 16 0
11 12 16 15 0
11 13 14 15 0
11 13 14 16 0
11 13 15 16 0
11 14 15 16 0
12 13 14 15 0
12 13 14 16 0
12 13 15 16 0
12 14 15 16 0
13 14 15 16 0
-11 -12 -13 -14 0
-11 -12 -13 -15 0
-11 -12 -13 -16 0
-11 -12 -14 -15 0
-11 -12 -14 -16 0
-11 -12 -16 -15 0
-11 -13 -14 -15 0
-11 -13 -14 -16 0
-11 -13 -15 -16 0
-11 -14 -15 -16 0
-12 -13 -14 -15 0
-12 -13 -14 -16 0
-12 -13 -15 -16 0
-12 -14 -15 -16 0
-13 -14 -15 -16 0
21 22 23 24 0
21 22 23 25 0
21 22 23 26 0
21 22 24 25 0
21 22 24 26 0
21 22 26 25 0
21 23 24 25 0
21 23 24 26 0
21 23 25 26 0
21 24 25 26 0
22 23 24 25 0
22 23 24 26 0
22 23 25 26 0
22 24 25 26 0
23 24 25 26 0
-21 -22 -23 -24 0
-21 -22 -23 -25 0
-21 -22 -23 -26 0
-21 -22 -24 -25 0
-21 -22 -24 -26 0
-21 -22 -26 -25 0
-21 -23 -24 -25 0
-21 -23 -24 -26 0
-21 -23 -25 -26 0
-21 -24 -25 -26 0
-22 -23 -24 -25 0
-22 -23 -24 -26 0
-22 -23 -25 -26 0
-22 -24 -25 -26 0
-23 -24 -25 -26 0
31 32 33 34 0
31 32 33 35 0
31 32 33 36 0
31 32 34 35 0
31 32 34 36 0
31 32 36 35 0
31 33 34 35 0
31 33 34 36 0
31 33 35 36 0
31 34 35 36 0
32 33 34 35 0
32 33 34 36 0
32 33 35 36 0
32 34 35 36 0
33 34 35 36 0
-31 -32 -33 -34 0
-31 -32 -33 -35 0
-31 -32 -33 -36 0
-31 -32 -34 -35 0
-31 -32 -34 -36 0
-31 -32 -36 -35 0
-31 -33 -34 -35 0
-31 -33 -34 -36 0
-31 -33 -35 -36 0
-31 -34 -35 -36 0
-32 -33 -34 -35 0
-32 -33 -34 -36 0
-32 -33 -35 -36 0
-32 -34 -35 -36 0
-33 -34 -35 -36 0
41 42 43 44 0
41 42 43 45 0
41 42 43 46 0
41 42 44 45 0
41 42 44 46 0
41 42 46 45 0
41 43 44 45 0
41 43 44 46 0
41 43 45 46 0
41 44 45 46 0
42 43 44 45 0
42 43 44 46 0
42 43 45 46 0
42 44 45 46 0
43 44 45 46 0
-41 -42 -43 -44 0
-41 -42 -43 -45 0
-41 -42 -43 -46 0
-41 -42 -44 -45 0
-41 -42 -44 -46 0
-41 -42 -46 -45 0
-41 -43 -44 -45 0
-41 -43 -44 -46 0
-41 -43 -45 -46 0
-41 -44 -45 -46 0
-42 -43 -44 -45 0
-42 -43 -44 -46 0
-42 -43 -45 -46 0
-42 -44 -45 -46 0
-43 -44 -45 -46 0
51 52 53 54 0
51 52 53 55 0
51 52 53 56 0
51 52 54 55 0
51 52 54 56 0
51 52 56 55 0
51 53 54 55 0
51 53 54 56 0
51 53 55 56 0
51 54 55 56 0
52 53 54 55 0
52 53 54 56 0
52 53 55 56 0
52 54 55 56 0
53 54 55 56 0
-51 -52 -53 -54 0
-51 -52 -53 -55 0
-51 -52 -53 -56 0
-51 -52 -54 -55 0
-51 -52 -54 -56 0
-51 -52 -56 -55 0
-51 -53 -54 -55 0
-51 -53 -54 -56 0
-51 -53 -55 -56 0
-51 -54 -55 -56 0
-52 -53 -54 -55 0
-52 -53 -54 -56 0
-52 -53 -55 -56 0
-52 -54 -55 -56 0
-53 -54 -55 -56 0
61 62 63 64 0
61 62 63 65 0
61 62 63 66 0
61 62 64 65 0
61 62 64 66 0
61 62 66 65 0
61 63 64 65 0
61 63 64 66 0
61 63 65 66 0
61 64 65 66 0
62 63 64 65 0
62 63 64 66 0
62 63 65 66 0
62 64 65 66 0
63 64 65 66 0
-61 -62 -63 -64 0
-61 -62 -63 -65 0
-61 -62 -63 -66 0
-61 -62 -64 -65 0
-61 -62 -64 -66 0
-61 -62 -66 -65 0
-61 -63 -64 -65 0
-61 -63 -64 -66 0
-61 -63 -65 -66 0
-61 -64 -65 -66 0
-62 -63 -64 -65 0
-62 -63 -64 -66 0
-62 -63 -65 -66 0
-62 -64 -65 -66 0
-63 -64 -65 -66 0
11 21 31 41 0
11 21 31 51 0
11 21 31 61 0
11 21 41 51 0
11 21 41 61 0
11 21 61 51 0
11 31 41 51 0
11 31 41 61 0
11 31 51 61 0
11 41 51 61 0
21 31 41 51 0
21 31 41 61 0
21 31 51 61 0
21 41 51 61 0
31 41 51 61 0
-11 -21 -31 -41 0
-11 -21 -31 -51 0
-11 -21 -31 -61 0
-11 -21 -41 -51 0
-11 -21 -41 -61 0
-11 -21 -61 -51 0
-11 -31 -41 -51 0
-11 -31 -41 -61 0
-11 -31 -51 -61 0
-11 -41 -51 -61 0
-21 -31 -41 -51 0
-21 -31 -41 -61 0
-21 -31 -51 -61 0
-21 -41 -51 -61 0
-31 -41 -51 -61 0
12 22 32 42 0
12 22 32 52 0
12 22 32 62 0
12 22 42 52 0
12 22 42 62 0
12 22 62 52 0
12 32 42 52 0
12 32 42 62 0
12 32 52 62 0
12 42 52 62 0
22 32 42 52 0
22 32 42 62 0
22 32 52 62 0
22 42 52 62 0
32 42 52 62 0
-12 -22 -32 -42 0
-12 -22 -32 -52 0
-12 -22 -32 -62 0
-12 -22 -42 -52 0
-12 -22 -42 -62 0
-12 -22 -62 -52 0
-12 -32 -42 -52 0
-12 -32 -42 -62 0
-12 -32 -52 -62 0
-12 -42 -52 -62 0
-22 -32 -42 -52 0
-22 -32 -42 -62 0
-22 -32 -52 -62 0
-22 -42 -52 -62 0
-32 -42 -52 -62 0
13 23 33 43 0
13 23 33 53 0
13 23 33 63 0
13 23 43 53 0
13 23 43 63 0
13 23 63 53 0
13 33 43 53 0
13 33 43 63 0
13 33 53 63 0
13 43 53 63 0
23 33 43 53 0
23 33 43 63 0
23 33 53 63 0
23 43 53 63 0
33 43 53 63 0
-13 -23 -33 -43 0
-13 -23 -33 -53 0
-13 -23 -33 -63 0
-13 -23 -43 -53 0
-13 -23 -43 -63 0
-13 -23 -63 -53 0
-13 -33 -43 -53 0
-13 -33 -43 -63 0
-13 -33 -53 -63 0
-13 -43 -53 -63 0
-23 -33 -43 -53 0
-23 -33 -43 -63 0
-23 -33 -53 -63 0
-23 -43 -53 -63 0
-33 -43 -53 -63 0
14 24 34 44 0
14 24 34 54 0
14 24 34 64 0
14 24 44 54 0
14 24 44 64 0
14 24 64 54 0
14 34 44 54 0
14 34 44 64 0
14 34 54 64 0
14 44 54 64 0
24 34 44 54 0
24 34 44 64 0
24 34 54 64 0
24 44 54 64 0
34 44 54 64 0
-14 -24 -34 -44 0
-14 -24 -34 -54 0
-14 -24 -34 -64 0
-14 -24 -44 -54 0
-14 -24 -44 -64 0
-14 -24 -64 -54 0
-14 -34 -44 -54 0
-14 -34 -44 -64 0
-14 -34 -54 -64 0
-14 -44 -54 -64 0
-24 -34 -44 -54 0
-24 -34 -44 -64 0
-24 -34 -54 -64 0
-24 -44 -54 -64 0
-34 -44 -54 -64 0
15 25 35 45 0
15 25 35 55 0
15 25 35 65 0
15 25 45 55 0
15 25 45 65 0
15 25 65 55 0
15 35 45 55 0
15 35 45 65 0
15 35 55 65 0
15 45 55 65 0
25 35 45 55 0
25 35 45 65 0
25 35 55 65 0
25 45 55 65 0
35 45 55 65 0
-15 -25 -35 -45 0
-15 -25 -35 -55 0
-15 -25 -35 -65 0
-15 -25 -45 -55 0
-15 -25 -45 -65 0
-15 -25 -65 -55 0
-15 -35 -45 -55 0
-15 -35 -45 -65 0
-15 -35 -55 -65 0
-15 -45 -55 -65 0
-25 -35 -45 -55 0
-25 -35 -45 -65 0
-25 -35 -55 -65 0
-25 -45 -55 -65 0
-35 -45 -55 -65 0
16 26 36 46 0
16 26 36 56 0
16 26 36 66 0
16 26 46 56 0
16 26 46 66 0
16 26 66 56 0
16 36 46 56 0
16 36 46 66 0
16 36 56 66 0
16 46 56 66 0
26 36 46 56 0
26 36 46 66 0
26 36 56 66 0
26 46 56 66 0
36 46 56 66 0
-16 -26 -36 -46 0
-16 -26 -36 -56 0
-16 -26 -36 -66 0
-16 -26 -46 -56 0
-16 -26 -46 -66 0
-16 -26 -66 -56 0
-16 -36 -46 -56 0
-16 -36 -46 -66 0
-16 -36 -56 -66 0
-16 -46 -56 -66 0
-26 -36 -46 -56 0
-26 -36 -46 -66 0
-26 -36 -56 -66 0
-26 -46 -56 -66 0
-36 -46 -56 -66 0
11 -11211 0
21 -11211 0
-11 -21 11211 0
-11 -11210 0
-21 -11210 0
11 21 11210 0
1121 -11211 0
1121 -11210 0
11211 11210 -1121 0
12 -11221 0
22 -11221 0
-12 -22 11221 0
-12 -11220 0
-22 -11220 0
12 22 11220 0
1122 -11221 0
1122 -11220 0
11221 11220 -1122 0
13 -11231 0
23 -11231 0
-13 -23 11231 0
-13 -11230 0
-23 -11230 0
13 23 11230 0
1123 -11231 0
1123 -11230 0
11231 11230 -1123 0
14 -11241 0
24 -11241 0
-14 -24 11241 0
-14 -11240 0
-24 -11240 0
14 24 11240 0
1124 -11241 0
1124 -11240 0
11241 11240 -1124 0
15 -11251 0
25 -11251 0
-15 -25 11251 0
-15 -11250 0
-25 -11250 0
15 25 11250 0
1125 -11251 0
1125 -11250 0
11251 11250 -1125 0
16 -11261 0
26 -11261 0
-16 -26 11261 0
-16 -11260 0
-26 -11260 0
16 26 11260 0
1126 -11261 0
1126 -11260 0
11261 11260 -1126 0
-112 -1121 -1122 -1123 -1124 -1125 -1126 0
112 1121 0
112 1122 0
112 1123 0
112 1124 0
112 1125 0
112 1126 0
11 -11311 0
31 -11311 0
-11 -31 11311 0
-11 -11310 0
-31 -11310 0
11 31 11310 0
1131 -11311 0
1131 -11310 0
11311 11310 -1131 0
12 -11321 0
32 -11321 0
-12 -32 11321 0
-12 -11320 0
-32 -11320 0
12 32 11320 0
1132 -11321 0
1132 -11320 0
11321 11320 -1132 0
13 -11331 0
33 -11331 0
-13 -33 11331 0
-13 -11330 0
-33 -11330 0
13 33 11330 0
1133 -11331 0
1133 -11330 0
11331 11330 -1133 0
14 -11341 0
34 -11341 0
-14 -34 11341 0
-14 -11340 0
-34 -11340 0
14 34 11340 0
1134 -11341 0
1134 -11340 0
11341 11340 -1134 0
15 -11351 0
35 -11351 0
-15 -35 11351 0
-15 -11350 0
-35 -11350 0
15 35 11350 0
1135 -11351 0
1135 -11350 0
11351 11350 -1135 0
16 -11361 0
36 -11361 0
-16 -36 11361 0
-16 -11360 0
-36 -11360 0
16 36 11360 0
1136 -11361 0
1136 -11360 0
11361 11360 -1136 0
-113 -1131 -1132 -1133 -1134 -1135 -1136 0
113 1131 0
113 1132 0
113 1133 0
113 1134 0
113 1135 0
113 1136 0
11 -11411 0
41 -11411 0
-11 -41 11411 0
-11 -11410 0
-41 -11410 0
11 41 11410 0
1141 -11411 0
1141 -11410 0
11411 11410 -1141 0
12 -11421 0
42 -11421 0
-12 -42 11421 0
-12 -11420 0
-42 -11420 0
12 42 11420 0
1142 -11421 0
1142 -11420 0
11421 11420 -1142 0
13 -11431 0
43 -11431 0
-13 -43 11431 0
-13 -11430 0
-43 -11430 0
13 43 11430 0
1143 -11431 0
1143 -11430 0
11431 11430 -1143 0
14 -11441 0
44 -11441 0
-14 -44 11441 0
-14 -11440 0
-44 -11440 0
14 44 11440 0
1144 -11441 0
1144 -11440 0
11441 11440 -1144 0
15 -11451 0
45 -11451 0
-15 -45 11451 0
-15 -11450 0
-45 -11450 0
15 45 11450 0
1145 -11451 0
1145 -11450 0
11451 11450 -1145 0
16 -11461 0
46 -11461 0
-16 -46 11461 0
-16 -11460 0
-46 -11460 0
16 46 11460 0
1146 -11461 0
1146 -11460 0
11461 11460 -1146 0
-114 -1141 -1142 -1143 -1144 -1145 -1146 0
114 1141 0
114 1142 0
114 1143 0
114 1144 0
114 1145 0
114 1146 0
11 -11511 0
51 -11511 0
-11 -51 11511 0
-11 -11510 0
-51 -11510 0
11 51 11510 0
1151 -11511 0
1151 -11510 0
11511 11510 -1151 0
12 -11521 0
52 -11521 0
-12 -52 11521 0
-12 -11520 0
-52 -11520 0
12 52 11520 0
1152 -11521 0
1152 -11520 0
11521 11520 -1152 0
13 -11531 0
53 -11531 0
-13 -53 11531 0
-13 -11530 0
-53 -11530 0
13 53 11530 0
1153 -11531 0
1153 -11530 0
11531 11530 -1153 0
14 -11541 0
54 -11541 0
-14 -54 11541 0
-14 -11540 0
-54 -11540 0
14 54 11540 0
1154 -11541 0
1154 -11540 0
11541 11540 -1154 0
15 -11551 0
55 -11551 0
-15 -55 11551 0
-15 -11550 0
-55 -11550 0
15 55 11550 0
1155 -11551 0
1155 -11550 0
11551 11550 -1155 0
16 -11561 0
56 -11561 0
-16 -56 11561 0
-16 -11560 0
-56 -11560 0
16 56 11560 0
1156 -11561 0
1156 -11560 0
11561 11560 -1156 0
-115 -1151 -1152 -1153 -1154 -1155 -1156 0
115 1151 0
115 1152 0
115 1153 0
115 1154 0
115 1155 0
115 1156 0
11 -11611 0
61 -11611 0
-11 -61 11611 0
-11 -11610 0
-61 -11610 0
11 61 11610 0
1161 -11611 0
1161 -11610 0
11611 11610 -1161 0
12 -11621 0
62 -11621 0
-12 -62 11621 0
-12 -11620 0
-62 -11620 0
12 62 11620 0
1162 -11621 0
1162 -11620 0
11621 11620 -1162 0
13 -11631 0
63 -11631 0
-13 -63 11631 0
-13 -11630 0
-63 -11630 0
13 63 11630 0
1163 -11631 0
1163 -11630 0
11631 11630 -1163 0
14 -11641 0
64 -11641 0
-14 -64 11641 0
-14 -11640 0
-64 -11640 0
14 64 11640 0
1164 -11641 0
1164 -11640 0
11641 11640 -1164 0
15 -11651 0
65 -11651 0
-15 -65 11651 0
-15 -11650 0
-65 -11650 0
15 65 11650 0
1165 -11651 0
1165 -11650 0
11651 11650 -1165 0
16 -11661 0
66 -11661 0
-16 -66 11661 0
-16 -11660 0
-66 -11660 0
16 66 11660 0
1166 -11661 0
1166 -11660 0
11661 11660 -1166 0
-116 -1161 -1162 -1163 -1164 -1165 -1166 0
116 1161 0
116 1162 0
116 1163 0
116 1164 0
116 1165 0
116 1166 0
21 -12311 0
31 -12311 0
-21 -31 12311 0
-21 -12310 0
-31 -12310 0
21 31 12310 0
1231 -12311 0
1231 -12310 0
12311 12310 -1231 0
22 -12321 0
32 -12321 0
-22 -32 12321 0
-22 -12320 0
-32 -12320 0
22 32 12320 0
1232 -12321 0
1232 -12320 0
12321 12320 -1232 0
23 -12331 0
33 -12331 0
-23 -33 12331 0
-23 -12330 0
-33 -12330 0
23 33 12330 0
1233 -12331 0
1233 -12330 0
12331 12330 -1233 0
24 -12341 0
34 -12341 0
-24 -34 12341 0
-24 -12340 0
-34 -12340 0
24 34 12340 0
1234 -12341 0
1234 -12340 0
12341 12340 -1234 0
25 -12351 0
35 -12351 0
-25 -35 12351 0
-25 -12350 0
-35 -12350 0
25 35 12350 0
1235 -12351 0
1235 -12350 0
12351 12350 -1235 0
26 -12361 0
36 -12361 0
-26 -36 12361 0
-26 -12360 0
-36 -12360 0
26 36 12360 0
1236 -12361 0
1236 -12360 0
12361 12360 -1236 0
-123 -1231 -1232 -1233 -1234 -1235 -1236 0
123 1231 0
123 1232 0
123 1233 0
123 1234 0
123 1235 0
123 1236 0
21 -12411 0
41 -12411 0
-21 -41 12411 0
-21 -12410 0
-41 -12410 0
21 41 12410 0
1241 -12411 0
1241 -12410 0
12411 12410 -1241 0
22 -12421 0
42 -12421 0
-22 -42 12421 0
-22 -12420 0
-42 -12420 0
22 42 12420 0
1242 -12421 0
1242 -12420 0
12421 12420 -1242 0
23 -12431 0
43 -12431 0
-23 -43 12431 0
-23 -12430 0
-43 -12430 0
23 43 12430 0
1243 -12431 0
1243 -12430 0
12431 12430 -1243 0
24 -12441 0
44 -12441 0
-24 -44 12441 0
-24 -12440 0
-44 -12440 0
24 44 12440 0
1244 -12441 0
1244 -12440 0
12441 12440 -1244 0
25 -12451 0
45 -12451 0
-25 -45 12451 0
-25 -12450 0
-45 -12450 0
25 45 12450 0
1245 -12451 0
1245 -12450 0
12451 12450 -1245 0
26 -12461 0
46 -12461 0
-26 -46 12461 0
-26 -12460 0
-46 -12460 0
26 46 12460 0
1246 -12461 0
1246 -12460 0
12461 12460 -1246 0
-124 -1241 -1242 -1243 -1244 -1245 -1246 0
124 1241 0
124 1242 0
124 1243 0
124 1244 0
124 1245 0
124 1246 0
21 -12511 0
51 -12511 0
-21 -51 12511 0
-21 -12510 0
-51 -12510 0
21 51 12510 0
1251 -12511 0
1251 -12510 0
12511 12510 -1251 0
22 -12521 0
52 -12521 0
-22 -52 12521 0
-22 -12520 0
-52 -12520 0
22 52 12520 0
1252 -12521 0
1252 -12520 0
12521 12520 -1252 0
23 -12531 0
53 -12531 0
-23 -53 12531 0
-23 -12530 0
-53 -12530 0
23 53 12530 0
1253 -12531 0
1253 -12530 0
12531 12530 -1253 0
24 -12541 0
54 -12541 0
-24 -54 12541 0
-24 -12540 0
-54 -12540 0
24 54 12540 0
1254 -12541 0
1254 -12540 0
12541 12540 -1254 0
25 -12551 0
55 -12551 0
-25 -55 12551 0
-25 -12550 0
-55 -12550 0
25 55 12550 0
1255 -12551 0
1255 -12550 0
12551 12550 -1255 0
26 -12561 0
56 -12561 0
-26 -56 12561 0
-26 -12560 0
-56 -12560 0
26 56 12560 0
1256 -12561 0
1256 -12560 0
12561 12560 -1256 0
-125 -1251 -1252 -1253 -1254 -1255 -1256 0
125 1251 0
125 1252 0
125 1253 0
125 1254 0
125 1255 0
125 1256 0
21 -12611 0
61 -12611 0
-21 -61 12611 0
-21 -12610 0
-61 -12610 0
21 61 12610 0
1261 -12611 0
1261 -12610 0
12611 12610 -1261 0
22 -12621 0
62 -12621 0
-22 -62 12621 0
-22 -12620 0
-62 -12620 0
22 62 12620 0
1262 -12621 0
1262 -12620 0
12621 12620 -1262 0
23 -12631 0
63 -12631 0
-23 -63 12631 0
-23 -12630 0
-63 -12630 0
23 63 12630 0
1263 -12631 0
1263 -12630 0
12631 12630 -1263 0
24 -12641 0
64 -12641 0
-24 -64 12641 0
-24 -12640 0
-64 -12640 0
24 64 12640 0
1264 -12641 0
1264 -12640 0
12641 12640 -1264 0
25 -12651 0
65 -12651 0
-25 -65 12651 0
-25 -12650 0
-65 -12650 0
25 65 12650 0
1265 -12651 0
1265 -12650 0
12651 12650 -1265 0
26 -12661 0
66 -12661 0
-26 -66 12661 0
-26 -12660 0
-66 -12660 0
26 66 12660 0
1266 -12661 0
1266 -12660 0
12661 12660 -1266 0
-126 -1261 -1262 -1263 -1264 -1265 -1266 0
126 1261 0
126 1262 0
126 1263 0
126 1264 0
126 1265 0
126 1266 0
31 -13411 0
41 -13411 0
-31 -41 13411 0
-31 -13410 0
-41 -13410 0
31 41 13410 0
1341 -13411 0
1341 -13410 0
13411 13410 -1341 0
32 -13421 0
42 -13421 0
-32 -42 13421 0
-32 -13420 0
-42 -13420 0
32 42 13420 0
1342 -13421 0
1342 -13420 0
13421 13420 -1342 0
33 -13431 0
43 -13431 0
-33 -43 13431 0
-33 -13430 0
-43 -13430 0
33 43 13430 0
1343 -13431 0
1343 -13430 0
13431 13430 -1343 0
34 -13441 0
44 -13441 0
-34 -44 13441 0
-34 -13440 0
-44 -13440 0
34 44 13440 0
1344 -13441 0
1344 -13440 0
13441 13440 -1344 0
35 -13451 0
45 -13451 0
-35 -45 13451 0
-35 -13450 0
-45 -13450 0
35 45 13450 0
1345 -13451 0
1345 -13450 0
13451 13450 -1345 0
36 -13461 0
46 -13461 0
-36 -46 13461 0
-36 -13460 0
-46 -13460 0
36 46 13460 0
1346 -13461 0
1346 -13460 0
13461 13460 -1346 0
-134 -1341 -1342 -1343 -1344 -1345 -1346 0
134 1341 0
134 1342 0
134 1343 0
134 1344 0
134 1345 0
134 1346 0
31 -13511 0
51 -13511 0
-31 -51 13511 0
-31 -13510 0
-51 -13510 0
31 51 13510 0
1351 -13511 0
1351 -13510 0
13511 13510 -1351 0
32 -13521 0
52 -13521 0
-32 -52 13521 0
-32 -13520 0
-52 -13520 0
32 52 13520 0
1352 -13521 0
1352 -13520 0
13521 13520 -1352 0
33 -13531 0
53 -13531 0
-33 -53 13531 0
-33 -13530 0
-53 -13530 0
33 53 13530 0
1353 -13531 0
1353 -13530 0
13531 13530 -1353 0
34 -13541 0
54 -13541 0
-34 -54 13541 0
-34 -13540 0
-54 -13540 0
34 54 13540 0
1354 -13541 0
1354 -13540 0
13541 13540 -1354 0
35 -13551 0
55 -13551 0
-35 -55 13551 0
-35 -13550 0
-55 -13550 0
35 55 13550 0
1355 -13551 0
1355 -13550 0
13551 13550 -1355 0
36 -13561 0
56 -13561 0
-36 -56 13561 0
-36 -13560 0
-56 -13560 0
36 56 13560 0
1356 -13561 0
1356 -13560 0
13561 13560 -1356 0
-135 -1351 -1352 -1353 -1354 -1355 -1356 0
135 1351 0
135 1352 0
135 1353 0
135 1354 0
135 1355 0
135 1356 0
31 -13611 0
61 -13611 0
-31 -61 13611 0
-31 -13610 0
-61 -13610 0
31 61 13610 0
1361 -13611 0
1361 -13610 0
13611 13610 -1361 0
32 -13621 0
62 -13621 0
-32 -62 13621 0
-32 -13620 0
-62 -13620 0
32 62 13620 0
1362 -13621 0
1362 -13620 0
13621 13620 -1362 0
33 -13631 0
63 -13631 0
-33 -63 13631 0
-33 -13630 0
-63 -13630 0
33 63 13630 0
1363 -13631 0
1363 -13630 0
13631 13630 -1363 0
34 -13641 0
64 -13641 0
-34 -64 13641 0
-34 -13640 0
-64 -13640 0
34 64 13640 0
1364 -13641 0
1364 -13640 0
13641 13640 -1364 0
35 -13651 0
65 -13651 0
-35 -65 13651 0
-35 -13650 0
-65 -13650 0
35 65 13650 0
1365 -13651 0
1365 -13650 0
13651 13650 -1365 0
36 -13661 0
66 -13661 0
-36 -66 13661 0
-36 -13660 0
-66 -13660 0
36 66 13660 0
1366 -13661 0
1366 -13660 0
13661 13660 -1366 0
-136 -1361 -1362 -1363 -1364 -1365 -1366 0
136 1361 0
136 1362 0
136 1363 0
136 1364 0
136 1365 0
136 1366 0
41 -14511 0
51 -14511 0
-41 -51 14511 0
-41 -14510 0
-51 -14510 0
41 51 14510 0
1451 -14511 0
1451 -14510 0
14511 14510 -1451 0
42 -14521 0
52 -14521 0
-42 -52 14521 0
-42 -14520 0
-52 -14520 0
42 52 14520 0
1452 -14521 0
1452 -14520 0
14521 14520 -1452 0
43 -14531 0
53 -14531 0
-43 -53 14531 0
-43 -14530 0
-53 -14530 0
43 53 14530 0
1453 -14531 0
1453 -14530 0
14531 14530 -1453 0
44 -14541 0
54 -14541 0
-44 -54 14541 0
-44 -14540 0
-54 -14540 0
44 54 14540 0
1454 -14541 0
1454 -14540 0
14541 14540 -1454 0
45 -14551 0
55 -14551 0
-45 -55 14551 0
-45 -14550 0
-55 -14550 0
45 55 14550 0
1455 -14551 0
1455 -14550 0
14551 14550 -1455 0
46 -14561 0
56 -14561 0
-46 -56 14561 0
-46 -14560 0
-56 -14560 0
46 56 14560 0
1456 -14561 0
1456 -14560 0
14561 14560 -1456 0
-145 -1451 -1452 -1453 -1454 -1455 -1456 0
145 1451 0
145 1452 0
145 1453 0
145 1454 0
145 1455 0
145 1456 0
41 -14611 0
61 -14611 0
-41 -61 14611 0
-41 -14610 0
-61 -14610 0
41 61 14610 0
1461 -14611 0
1461 -14610 0
14611 14610 -1461 0
42 -14621 0
62 -14621 0
-42 -62 14621 0
-42 -14620 0
-62 -14620 0
42 62 14620 0
1462 -14621 0
1462 -14620 0
14621 14620 -1462 0
43 -14631 0
63 -14631 0
-43 -63 14631 0
-43 -14630 0
-63 -14630 0
43 63 14630 0
1463 -14631 0
1463 -14630 0
14631 14630 -1463 0
44 -14641 0
64 -14641 0
-44 -64 14641 0
-44 -14640 0
-64 -14640 0
44 64 14640 0
1464 -14641 0
1464 -14640 0
14641 14640 -1464 0
45 -14651 0
65 -14651 0
-45 -65 14651 0
-45 -14650 0
-65 -14650 0
45 65 14650 0
1465 -14651 0
1465 -14650 0
14651 14650 -1465 0
46 -14661 0
66 -14661 0
-46 -66 14661 0
-46 -14660 0
-66 -14660 0
46 66 14660 0
1466 -14661 0
1466 -14660 0
14661 14660 -1466 0
-146 -1461 -1462 -1463 -1464 -1465 -1466 0
146 1461 0
146 1462 0
146 1463 0
146 1464 0
146 1465 0
146 1466 0
51 -15611 0
61 -15611 0
-51 -61 15611 0
-51 -15610 0
-61 -15610 0
51 61 15610 0
1561 -15611 0
1561 -15610 0
15611 15610 -1561 0
52 -15621 0
62 -15621 0
-52 -62 15621 0
-52 -15620 0
-62 -15620 0
52 62 15620 0
1562 -15621 0
1562 -15620 0
15621 15620 -1562 0
53 -15631 0
63 -15631 0
-53 -63 15631 0
-53 -15630 0
-63 -15630 0
53 63 15630 0
1563 -15631 0
1563 -15630 0
15631 15630 -1563 0
54 -15641 0
64 -15641 0
-54 -64 15641 0
-54 -15640 0
-64 -15640 0
54 64 15640 0
1564 -15641 0
1564 -15640 0
15641 15640 -1564 0
55 -15651 0
65 -15651 0
-55 -65 15651 0
-55 -15650 0
-65 -15650 0
55 65 15650 0
1565 -15651 0
1565 -15650 0
15651 15650 -1565 0
56 -15661 0
66 -15661 0
-56 -66 15661 0
-56 -15660 0
-66 -15660 0
56 66 15660 0
1566 -15661 0
1566 -15660 0
15661 15660 -1566 0
-156 -1561 -1562 -1563 -1564 -1565 -1566 0
156 1561 0
156 1562 0
156 1563 0
156 1564 0
156 1565 0
156 1566 0
11 -21211 0
12 -21211 0
-11 -12 21211 0
-11 -21210 0
-12 -21210 0
11 12 21210 0
2121 -21211 0
2121 -21210 0
21211 21210 -2121 0
21 -21221 0
22 -21221 0
-21 -22 21221 0
-21 -21220 0
-22 -21220 0
21 22 21220 0
2122 -21221 0
2122 -21220 0
21221 21220 -2122 0
31 -21231 0
32 -21231 0
-31 -32 21231 0
-31 -21230 0
-32 -21230 0
31 32 21230 0
2123 -21231 0
2123 -21230 0
21231 21230 -2123 0
41 -21241 0
42 -21241 0
-41 -42 21241 0
-41 -21240 0
-42 -21240 0
41 42 21240 0
2124 -21241 0
2124 -21240 0
21241 21240 -2124 0
51 -21251 0
52 -21251 0
-51 -52 21251 0
-51 -21250 0
-52 -21250 0
51 52 21250 0
2125 -21251 0
2125 -21250 0
21251 21250 -2125 0
61 -21261 0
62 -21261 0
-61 -62 21261 0
-61 -21260 0
-62 -21260 0
61 62 21260 0
2126 -21261 0
2126 -21260 0
21261 21260 -2126 0
-212 -2121 -2122 -2123 -2124 -2125 -2126 0
212 2121 0
212 2122 0
212 2123 0
212 2124 0
212 2125 0
212 2126 0
11 -21311 0
13 -21311 0
-11 -13 21311 0
-11 -21310 0
-13 -21310 0
11 13 21310 0
2131 -21311 0
2131 -21310 0
21311 21310 -2131 0
21 -21321 0
23 -21321 0
-21 -23 21321 0
-21 -21320 0
-23 -21320 0
21 23 21320 0
2132 -21321 0
2132 -21320 0
21321 21320 -2132 0
31 -21331 0
33 -21331 0
-31 -33 21331 0
-31 -21330 0
-33 -21330 0
31 33 21330 0
2133 -21331 0
2133 -21330 0
21331 21330 -2133 0
41 -21341 0
43 -21341 0
-41 -43 21341 0
-41 -21340 0
-43 -21340 0
41 43 21340 0
2134 -21341 0
2134 -21340 0
21341 21340 -2134 0
51 -21351 0
53 -21351 0
-51 -53 21351 0
-51 -21350 0
-53 -21350 0
51 53 21350 0
2135 -21351 0
2135 -21350 0
21351 21350 -2135 0
61 -21361 0
63 -21361 0
-61 -63 21361 0
-61 -21360 0
-63 -21360 0
61 63 21360 0
2136 -21361 0
2136 -21360 0
21361 21360 -2136 0
-213 -2131 -2132 -2133 -2134 -2135 -2136 0
213 2131 0
213 2132 0
213 2133 0
213 2134 0
213 2135 0
213 2136 0
11 -21411 0
14 -21411 0
-11 -14 21411 0
-11 -21410 0
-14 -21410 0
11 14 21410 0
2141 -21411 0
2141 -21410 0
21411 21410 -2141 0
21 -21421 0
24 -21421 0
-21 -24 21421 0
-21 -21420 0
-24 -21420 0
21 24 21420 0
2142 -21421 0
2142 -21420 0
21421 21420 -2142 0
31 -21431 0
34 -21431 0
-31 -34 21431 0
-31 -21430 0
-34 -21430 0
31 34 21430 0
2143 -21431 0
2143 -21430 0
21431 21430 -2143 0
41 -21441 0
44 -21441 0
-41 -44 21441 0
-41 -21440 0
-44 -21440 0
41 44 21440 0
2144 -21441 0
2144 -21440 0
21441 21440 -2144 0
51 -21451 0
54 -21451 0
-51 -54 21451 0
-51 -21450 0
-54 -21450 0
51 54 21450 0
2145 -21451 0
2145 -21450 0
21451 21450 -2145 0
61 -21461 0
64 -21461 0
-61 -64 21461 0
-61 -21460 0
-64 -21460 0
61 64 21460 0
2146 -21461 0
2146 -21460 0
21461 21460 -2146 0
-214 -2141 -2142 -2143 -2144 -2145 -2146 0
214 2141 0
214 2142 0
214 2143 0
214 2144 0
214 2145 0
214 2146 0
11 -21511 0
15 -21511 0
-11 -15 21511 0
-11 -21510 0
-15 -21510 0
11 15 21510 0
2151 -21511 0
2151 -21510 0
21511 21510 -2151 0
21 -21521 0
25 -21521 0
-21 -25 21521 0
-21 -21520 0
-25 -21520 0
21 25 21520 0
2152 -21521 0
2152 -21520 0
21521 21520 -2152 0
31 -21531 0
35 -21531 0
-31 -35 21531 0
-31 -21530 0
-35 -21530 0
31 35 21530 0
2153 -21531 0
2153 -21530 0
21531 21530 -2153 0
41 -21541 0
45 -21541 0
-41 -45 21541 0
-41 -21540 0
-45 -21540 0
41 45 21540 0
2154 -21541 0
2154 -21540 0
21541 21540 -2154 0
51 -21551 0
55 -21551 0
-51 -55 21551 0
-51 -21550 0
-55 -21550 0
51 55 21550 0
2155 -21551 0
2155 -21550 0
21551 21550 -2155 0
61 -21561 0
65 -21561 0
-61 -65 21561 0
-61 -21560 0
-65 -21560 0
61 65 21560 0
2156 -21561 0
2156 -21560 0
21561 21560 -2156 0
-215 -2151 -2152 -2153 -2154 -2155 -2156 0
215 2151 0
215 2152 0
215 2153 0
215 2154 0
215 2155 0
215 2156 0
11 -21611 0
16 -21611 0
-11 -16 21611 0
-11 -21610 0
-16 -21610 0
11 16 21610 0
2161 -21611 0
2161 -21610 0
21611 21610 -2161 0
21 -21621 0
26 -21621 0
-21 -26 21621 0
-21 -21620 0
-26 -21620 0
21 26 21620 0
2162 -21621 0
2162 -21620 0
21621 21620 -2162 0
31 -21631 0
36 -21631 0
-31 -36 21631 0
-31 -21630 0
-36 -21630 0
31 36 21630 0
2163 -21631 0
2163 -21630 0
21631 21630 -2163 0
41 -21641 0
46 -21641 0
-41 -46 21641 0
-41 -21640 0
-46 -21640 0
41 46 21640 0
2164 -21641 0
2164 -21640 0
21641 21640 -2164 0
51 -21651 0
56 -21651 0
-51 -56 21651 0
-51 -21650 0
-56 -21650 0
51 56 21650 0
2165 -21651 0
2165 -21650 0
21651 21650 -2165 0
61 -21661 0
66 -21661 0
-61 -66 21661 0
-61 -21660 0
-66 -21660 0
61 66 21660 0
2166 -21661 0
2166 -21660 0
21661 21660 -2166 0
-216 -2161 -2162 -2163 -2164 -2165 -2166 0
216 2161 0
216 2162 0
216 2163 0
216 2164 0
216 2165 0
216 2166 0
12 -22311 0
13 -22311 0
-12 -13 22311 0
-12 -22310 0
-13 -22310 0
12 13 22310 0
2231 -22311 0
2231 -22310 0
22311 22310 -2231 0
22 -22321 0
23 -22321 0
-22 -23 22321 0
-22 -22320 0
-23 -22320 0
22 23 22320 0
2232 -22321 0
2232 -22320 0
22321 22320 -2232 0
32 -22331 0
33 -22331 0
-32 -33 22331 0
-32 -22330 0
-33 -22330 0
32 33 22330 0
2233 -22331 0
2233 -22330 0
22331 22330 -2233 0
42 -22341 0
43 -22341 0
-42 -43 22341 0
-42 -22340 0
-43 -22340 0
42 43 22340 0
2234 -22341 0
2234 -22340 0
22341 22340 -2234 0
52 -22351 0
53 -22351 0
-52 -53 22351 0
-52 -22350 0
-53 -22350 0
52 53 22350 0
2235 -22351 0
2235 -22350 0
22351 22350 -2235 0
62 -22361 0
63 -22361 0
-62 -63 22361 0
-62 -22360 0
-63 -22360 0
62 63 22360 0
2236 -22361 0
2236 -22360 0
22361 22360 -2236 0
-223 -2231 -2232 -2233 -2234 -2235 -2236 0
223 2231 0
223 2232 0
223 2233 0
223 2234 0
223 2235 0
223 2236 0
12 -22411 0
14 -22411 0
-12 -14 22411 0
-12 -22410 0
-14 -22410 0
12 14 22410 0
2241 -22411 0
2241 -22410 0
22411 22410 -2241 0
22 -22421 0
24 -22421 0
-22 -24 22421 0
-22 -22420 0
-24 -22420 0
22 24 22420 0
2242 -22421 0
2242 -22420 0
22421 22420 -2242 0
32 -22431 0
34 -22431 0
-32 -34 22431 0
-32 -22430 0
-34 -22430 0
32 34 22430 0
2243 -22431 0
2243 -22430 0
22431 22430 -2243 0
42 -22441 0
44 -22441 0
-42 -44 22441 0
-42 -22440 0
-44 -22440 0
42 44 22440 0
2244 -22441 0
2244 -22440 0
22441 22440 -2244 0
52 -22451 0
54 -22451 0
-52 -54 22451 0
-52 -22450 0
-54 -22450 0
52 54 22450 0
2245 -22451 0
2245 -22450 0
22451 22450 -2245 0
62 -22461 0
64 -22461 0
-62 -64 22461 0
-62 -22460 0
-64 -22460 0
62 64 22460 0
2246 -22461 0
2246 -22460 0
22461 22460 -2246 0
-224 -2241 -2242 -2243 -2244 -2245 -2246 0
224 2241 0
224 2242 0
224 2243 0
224 2244 0
224 2245 0
224 2246 0
12 -22511 0
15 -22511 0
-12 -15 22511 0
-12 -22510 0
-15 -22510 0
12 15 22510 0
2251 -22511 0
2251 -22510 0
22511 22510 -2251 0
22 -22521 0
25 -22521 0
-22 -25 22521 0
-22 -22520 0
-25 -22520 0
22 25 22520 0
2252 -22521 0
2252 -22520 0
22521 22520 -2252 0
32 -22531 0
35 -22531 0
-32 -35 22531 0
-32 -22530 0
-35 -22530 0
32 35 22530 0
2253 -22531 0
2253 -22530 0
22531 22530 -2253 0
42 -22541 0
45 -22541 0
-42 -45 22541 0
-42 -22540 0
-45 -22540 0
42 45 22540 0
2254 -22541 0
2254 -22540 0
22541 22540 -2254 0
52 -22551 0
55 -22551 0
-52 -55 22551 0
-52 -22550 0
-55 -22550 0
52 55 22550 0
2255 -22551 0
2255 -22550 0
22551 22550 -2255 0
62 -22561 0
65 -22561 0
-62 -65 22561 0
-62 -22560 0
-65 -22560 0
62 65 22560 0
2256 -22561 0
2256 -22560 0
22561 22560 -2256 0
-225 -2251 -2252 -2253 -2254 -2255 -2256 0
225 2251 0
225 2252 0
225 2253 0
225 2254 0
225 2255 0
225 2256 0
12 -22611 0
16 -22611 0
-12 -16 22611 0
-12 -22610 0
-16 -22610 0
12 16 22610 0
2261 -22611 0
2261 -22610 0
22611 22610 -2261 0
22 -22621 0
26 -22621 0
-22 -26 22621 0
-22 -22620 0
-26 -22620 0
22 26 22620 0
2262 -22621 0
2262 -22620 0
22621 22620 -2262 0
32 -22631 0
36 -22631 0
-32 -36 22631 0
-32 -22630 0
-36 -22630 0
32 36 22630 0
2263 -22631 0
2263 -22630 0
22631 22630 -2263 0
42 -22641 0
46 -22641 0
-42 -46 22641 0
-42 -22640 0
-46 -22640 0
42 46 22640 0
2264 -22641 0
2264 -22640 0
22641 22640 -2264 0
52 -22651 0
56 -22651 0
-52 -56 22651 0
-52 -22650 0
-56 -22650 0
52 56 22650 0
2265 -22651 0
2265 -22650 0
22651 22650 -2265 0
62 -22661 0
66 -22661 0
-62 -66 22661 0
-62 -22660 0
-66 -22660 0
62 66 22660 0
2266 -22661 0
2266 -22660 0
22661 22660 -2266 0
-226 -2261 -2262 -2263 -2264 -2265 -2266 0
226 2261 0
226 2262 0
226 2263 0
226 2264 0
226 2265 0
226 2266 0
13 -23411 0
14 -23411 0
-13 -14 23411 0
-13 -23410 0
-14 -23410 0
13 14 23410 0
2341 -23411 0
2341 -23410 0
23411 23410 -2341 0
23 -23421 0
24 -23421 0
-23 -24 23421 0
-23 -23420 0
-24 -23420 0
23 24 23420 0
2342 -23421 0
2342 -23420 0
23421 23420 -2342 0
33 -23431 0
34 -23431 0
-33 -34 23431 0
-33 -23430 0
-34 -23430 0
33 34 23430 0
2343 -23431 0
2343 -23430 0
23431 23430 -2343 0
43 -23441 0
44 -23441 0
-43 -44 23441 0
-43 -23440 0
-44 -23440 0
43 44 23440 0
2344 -23441 0
2344 -23440 0
23441 23440 -2344 0
53 -23451 0
54 -23451 0
-53 -54 23451 0
-53 -23450 0
-54 -23450 0
53 54 23450 0
2345 -23451 0
2345 -23450 0
23451 23450 -2345 0
63 -23461 0
64 -23461 0
-63 -64 23461 0
-63 -23460 0
-64 -23460 0
63 64 23460 0
2346 -23461 0
2346 -23460 0
23461 23460 -2346 0
-234 -2341 -2342 -2343 -2344 -2345 -2346 0
234 2341 0
234 2342 0
234 2343 0
234 2344 0
234 2345 0
234 2346 0
13 -23511 0
15 -23511 0
-13 -15 23511 0
-13 -23510 0
-15 -23510 0
13 15 23510 0
2351 -23511 0
2351 -23510 0
23511 23510 -2351 0
23 -23521 0
25 -23521 0
-23 -25 23521 0
-23 -23520 0
-25 -23520 0
23 25 23520 0
2352 -23521 0
2352 -23520 0
23521 23520 -2352 0
33 -23531 0
35 -23531 0
-33 -35 23531 0
-33 -23530 0
-35 -23530 0
33 35 23530 0
2353 -23531 0
2353 -23530 0
23531 23530 -2353 0
43 -23541 0
45 -23541 0
-43 -45 23541 0
-43 -23540 0
-45 -23540 0
43 45 23540 0
2354 -23541 0
2354 -23540 0
23541 23540 -2354 0
53 -23551 0
55 -23551 0
-53 -55 23551 0
-53 -23550 0
-55 -23550 0
53 55 23550 0
2355 -23551 0
2355 -23550 0
23551 23550 -2355 0
63 -23561 0
65 -23561 0
-63 -65 23561 0
-63 -23560 0
-65 -23560 0
63 65 23560 0
2356 -23561 0
2356 -23560 0
23561 23560 -2356 0
-235 -2351 -2352 -2353 -2354 -2355 -2356 0
235 2351 0
235 2352 0
235 2353 0
235 2354 0
235 2355 0
235 2356 0
13 -23611 0
16 -23611 0
-13 -16 23611 0
-13 -23610 0
-16 -23610 0
13 16 23610 0
2361 -23611 0
2361 -23610 0
23611 23610 -2361 0
23 -23621 0
26 -23621 0
-23 -26 23621 0
-23 -23620 0
-26 -23620 0
23 26 23620 0
2362 -23621 0
2362 -23620 0
23621 23620 -2362 0
33 -23631 0
36 -23631 0
-33 -36 23631 0
-33 -23630 0
-36 -23630 0
33 36 23630 0
2363 -23631 0
2363 -23630 0
23631 23630 -2363 0
43 -23641 0
46 -23641 0
-43 -46 23641 0
-43 -23640 0
-46 -23640 0
43 46 23640 0
2364 -23641 0
2364 -23640 0
23641 23640 -2364 0
53 -23651 0
56 -23651 0
-53 -56 23651 0
-53 -23650 0
-56 -23650 0
53 56 23650 0
2365 -23651 0
2365 -23650 0
23651 23650 -2365 0
63 -23661 0
66 -23661 0
-63 -66 23661 0
-63 -23660 0
-66 -23660 0
63 66 23660 0
2366 -23661 0
2366 -23660 0
23661 23660 -2366 0
-236 -2361 -2362 -2363 -2364 -2365 -2366 0
236 2361 0
236 2362 0
236 2363 0
236 2364 0
236 2365 0
236 2366 0
14 -24511 0
15 -24511 0
-14 -15 24511 0
-14 -24510 0
-15 -24510 0
14 15 24510 0
2451 -24511 0
2451 -24510 0
24511 24510 -2451 0
24 -24521 0
25 -24521 0
-24 -25 24521 0
-24 -24520 0
-25 -24520 0
24 25 24520 0
2452 -24521 0
2452 -24520 0
24521 24520 -2452 0
34 -24531 0
35 -24531 0
-34 -35 24531 0
-34 -24530 0
-35 -24530 0
34 35 24530 0
2453 -24531 0
2453 -24530 0
24531 24530 -2453 0
44 -24541 0
45 -24541 0
-44 -45 24541 0
-44 -24540 0
-45 -24540 0
44 45 24540 0
2454 -24541 0
2454 -24540 0
24541 24540 -2454 0
54 -24551 0
55 -24551 0
-54 -55 24551 0
-54 -24550 0
-55 -24550 0
54 55 24550 0
2455 -24551 0
2455 -24550 0
24551 24550 -2455 0
64 -24561 0
65 -24561 0
-64 -65 24561 0
-64 -24560 0
-65 -24560 0
64 65 24560 0
2456 -24561 0
2456 -24560 0
24561 24560 -2456 0
-245 -2451 -2452 -2453 -2454 -2455 -2456 0
245 2451 0
245 2452 0
245 2453 0
245 2454 0
245 2455 0
245 2456 0
14 -24611 0
16 -24611 0
-14 -16 24611 0
-14 -24610 0
-16 -24610 0
14 16 24610 0
2461 -24611 0
2461 -24610 0
24611 24610 -2461 0
24 -24621 0
26 -24621 0
-24 -26 24621 0
-24 -24620 0
-26 -24620 0
24 26 24620 0
2462 -24621 0
2462 -24620 0
24621 24620 -2462 0
34 -24631 0
36 -24631 0
-34 -36 24631 0
-34 -24630 0
-36 -24630 0
34 36 24630 0
2463 -24631 0
2463 -24630 0
24631 24630 -2463 0
44 -24641 0
46 -24641 0
-44 -46 24641 0
-44 -24640 0
-46 -24640 0
44 46 24640 0
2464 -24641 0
2464 -24640 0
24641 24640 -2464 0
54 -24651 0
56 -24651 0
-54 -56 24651 0
-54 -24650 0
-56 -24650 0
54 56 24650 0
2465 -24651 0
2465 -24650 0
24651 24650 -2465 0
64 -24661 0
66 -24661 0
-64 -66 24661 0
-64 -24660 0
-66 -24660 0
64 66 24660 0
2466 -24661 0
2466 -24660 0
24661 24660 -2466 0
-246 -2461 -2462 -2463 -2464 -2465 -2466 0
246 2461 0
246 2462 0
246 2463 0
246 2464 0
246 2465 0
246 2466 0
15 -25611 0
16 -25611 0
-15 -16 25611 0
-15 -25610 0
-16 -25610 0
15 16 25610 0
2561 -25611 0
2561 -25610 0
25611 25610 -2561 0
25 -25621 0
26 -25621 0
-25 -26 25621 0
-25 -25620 0
-26 -25620 0
25 26 25620 0
2562 -25621 0
2562 -25620 0
25621 25620 -2562 0
35 -25631 0
36 -25631 0
-35 -36 25631 0
-35 -25630 0
-36 -25630 0
35 36 25630 0
2563 -25631 0
2563 -25630 0
25631 25630 -2563 0
45 -25641 0
46 -25641 0
-45 -46 25641 0
-45 -25640 0
-46 -25640 0
45 46 25640 0
2564 -25641 0
2564 -25640 0
25641 25640 -2564 0
55 -25651 0
56 -25651 0
-55 -56 25651 0
-55 -25650 0
-56 -25650 0
55 56 25650 0
2565 -25651 0
2565 -25650 0
25651 25650 -2565 0
65 -25661 0
66 -25661 0
-65 -66 25661 0
-65 -25660 0
-66 -25660 0
65 66 25660 0
2566 -25661 0
2566 -25660 0
25661 25660 -2566 0
-256 -2561 -2562 -2563 -2564 -2565 -2566 0
256 2561 0
256 2562 0
256 2563 0
256 2564 0
256 2565 0
256 2566 0
